Grasp exp. instance_n_25_m_5_id_2.lp tipoLifted 0 szPool 5 nIteration 100 alpha 0.6 
Academic license - for non-commercial use only
Read LP format model from file ../input/instancesGenerated/instance_n_25_m_5_id_2.lp
Reading time = 0.00 seconds
: 5 rows, 25 columns, 125 nonzeros
Optimize a model with 5 rows, 25 columns and 125 nonzeros
Variable types: 0 continuous, 25 integer (25 binary)
Coefficient statistics:
  Matrix range     [1e+00, 1e+01]
  Objective range  [1e+00, 1e+01]
  Bounds range     [1e+00, 1e+00]
  RHS range        [7e+01, 8e+01]
Found heuristic solution: objective 63.0000000

Explored 0 nodes (0 simplex iterations) in 0.00 seconds
Thread count was 1 (of 8 available processors)

Solution count 1: 63 
No other solutions better than 0

Solution limit reached
Best objective 6.300000000000e+01, best bound -, gap -
C_1:	 5.00 x_1  = 0.783784 + 10.00 x_2  = 1.000000 + 2.00 x_3  = 0.000000 + 1.00 x_4  = 1.000000 + 6.00 x_5  = 1.000000 + 10.00 x_6  = 0.054054 + 6.00 x_7  = 0.000000 + 6.00 x_8  = 0.256757 + 1.00 x_9  = 0.000000 + 1.00 x_10  = 1.000000 + 5.00 x_11  = 1.000000 + 7.00 x_12  = 0.000000 + 7.00 x_13  = 0.000000 + 9.00 x_14  = 1.000000 + 10.00 x_15  = 1.000000 + 5.00 x_16  = 1.000000 + 5.00 x_17  = 1.000000 + 1.00 x_18  = 0.000000 + 8.00 x_19  = 0.000000 + 6.00 x_20  = 0.000000 + 2.00 x_21  = 0.000000 + 7.00 x_22  = 0.000000 + 7.00 x_23  = 0.000000 + 2.00 x_24  = 1.000000 + 9.00 x_25  = 1.000000 <= 69.00
C_2:	 8.00 x_1  = 0.783784 + 6.00 x_2  = 1.000000 + 6.00 x_3  = 0.000000 + 1.00 x_4  = 1.000000 + 1.00 x_5  = 1.000000 + 4.00 x_6  = 0.054054 + 7.00 x_7  = 0.000000 + 2.00 x_8  = 0.256757 + 7.00 x_9  = 0.000000 + 8.00 x_10  = 1.000000 + 9.00 x_11  = 1.000000 + 6.00 x_12  = 0.000000 + 5.00 x_13  = 0.000000 + 5.00 x_14  = 1.000000 + 9.00 x_15  = 1.000000 + 8.00 x_16  = 1.000000 + 9.00 x_17  = 1.000000 + 5.00 x_18  = 0.000000 + 4.00 x_19  = 0.000000 + 10.00 x_20  = 0.000000 + 5.00 x_21  = 0.000000 + 8.00 x_22  = 0.000000 + 6.00 x_23  = 0.000000 + 7.00 x_24  = 1.000000 + 5.00 x_25  = 1.000000 <= 75.00
C_3:	 1.00 x_1  = 0.783784 + 10.00 x_2  = 1.000000 + 3.00 x_3  = 0.000000 + 8.00 x_4  = 1.000000 + 4.00 x_5  = 1.000000 + 1.00 x_6  = 0.054054 + 7.00 x_7  = 0.000000 + 9.00 x_8  = 0.256757 + 9.00 x_9  = 0.000000 + 7.00 x_10  = 1.000000 + 1.00 x_11  = 1.000000 + 2.00 x_12  = 0.000000 + 5.00 x_13  = 0.000000 + 2.00 x_14  = 1.000000 + 10.00 x_15  = 1.000000 + 4.00 x_16  = 1.000000 + 1.00 x_17  = 1.000000 + 8.00 x_18  = 0.000000 + 9.00 x_19  = 0.000000 + 7.00 x_20  = 0.000000 + 6.00 x_21  = 0.000000 + 6.00 x_22  = 0.000000 + 7.00 x_23  = 0.000000 + 10.00 x_24  = 1.000000 + 1.00 x_25  = 1.000000 <= 69.00
C_4:	 6.00 x_1  = 0.783784 + 6.00 x_2  = 1.000000 + 8.00 x_3  = 0.000000 + 2.00 x_4  = 1.000000 + 5.00 x_5  = 1.000000 + 5.00 x_6  = 0.054054 + 4.00 x_7  = 0.000000 + 4.00 x_8  = 0.256757 + 7.00 x_9  = 0.000000 + 1.00 x_10  = 1.000000 + 7.00 x_11  = 1.000000 + 10.00 x_12  = 0.000000 + 9.00 x_13  = 0.000000 + 7.00 x_14  = 1.000000 + 8.00 x_15  = 1.000000 + 7.00 x_16  = 1.000000 + 7.00 x_17  = 1.000000 + 1.00 x_18  = 0.000000 + 2.00 x_19  = 0.000000 + 1.00 x_20  = 0.000000 + 10.00 x_21  = 0.000000 + 5.00 x_22  = 0.000000 + 3.00 x_23  = 0.000000 + 7.00 x_24  = 1.000000 + 5.00 x_25  = 1.000000 <= 68.00
C_5:	 9.00 x_1  = 0.783784 + 4.00 x_2  = 1.000000 + 10.00 x_3  = 0.000000 + 7.00 x_4  = 1.000000 + 6.00 x_5  = 1.000000 + 10.00 x_6  = 0.054054 + 3.00 x_7  = 0.000000 + 1.00 x_8  = 0.256757 + 10.00 x_9  = 0.000000 + 4.00 x_10  = 1.000000 + 7.00 x_11  = 1.000000 + 4.00 x_12  = 0.000000 + 7.00 x_13  = 0.000000 + 3.00 x_14  = 1.000000 + 2.00 x_15  = 1.000000 + 10.00 x_16  = 1.000000 + 1.00 x_17  = 1.000000 + 3.00 x_18  = 0.000000 + 10.00 x_19  = 0.000000 + 10.00 x_20  = 0.000000 + 10.00 x_21  = 0.000000 + 7.00 x_22  = 0.000000 + 6.00 x_23  = 0.000000 + 2.00 x_24  = 1.000000 + 8.00 x_25  = 1.000000 <= 77.00
Solution initial: 94.743243 
Number Constraints Used in Cover:5
GRASP Method!
Number cuts repeat: 0
value: 94.743243
Number Constraints Used in Cover:10
GRASP Method!
Number cuts repeat: 0
value: 94.743243
Number Constraints Used in Cover:13
GRASP Method!
Number cuts repeat: 0
value: 94.743243
Number Constraints Used in Cover:18
GRASP Method!
Number cuts repeat: 0
value: 94.743243
Number Constraints Used in Cover:23
GRASP Method!
Number cuts repeat: 0
value: 94.743243
Number Constraints Used in Cover:27
GRASP Method!
Number cuts repeat: 0
value: 94.743243
Number Constraints Used in Cover:28
GRASP Method!
Number cuts repeat: 0
value: 94.743243
Number Constraints Used in Cover:31
GRASP Method!
Number cuts repeat: 0
value: 94.743243
Number Constraints Used in Cover:34
GRASP Method!
Number cuts repeat: 0
value: 94.743243
Number Constraints Used in Cover:39
GRASP Method!
Number cuts repeat: 0
value: 94.743243
Number Constraints Used in Cover:43
GRASP Method!
Number cuts repeat: 0
value: 94.743243
Number Constraints Used in Cover:48
GRASP Method!
Number cuts repeat: 0
value: 94.743243
Number Constraints Used in Cover:53
GRASP Method!
Number cuts repeat: 0
value: 94.743243
Number Constraints Used in Cover:56
GRASP Method!
Number cuts repeat: 0
value: 94.743243
Number Constraints Used in Cover:61
GRASP Method!
Number cuts repeat: 0
value: 94.743243
Number Constraints Used in Cover:64
GRASP Method!
Number cuts repeat: 0
value: 94.743243
Number Constraints Used in Cover:66
GRASP Method!
Number cuts repeat: 0
value: 94.743243
Number Constraints Used in Cover:70
GRASP Method!
Number cuts repeat: 0
value: 94.743243
Number Constraints Used in Cover:72
GRASP Method!
Number cuts repeat: 0
value: 94.743243
Number Constraints Used in Cover:75
GRASP Method!
Number cuts repeat: 0
value: 94.743243
Number Constraints Used in Cover:78
GRASP Method!
Number cuts repeat: 0
value: 94.743243
Number Constraints Used in Cover:80
GRASP Method!
Number cuts repeat: 0
value: 94.743243
Number Constraints Used in Cover:84
GRASP Method!
Number cuts repeat: 0
value: 94.743243
Number Constraints Used in Cover:87
GRASP Method!
Number cuts repeat: 0
value: 94.743243
Number Constraints Used in Cover:91
GRASP Method!
Number cuts repeat: 0
value: 94.743243
Number Constraints Used in Cover:94
GRASP Method!
Number cuts repeat: 0
value: 94.743243
Number Constraints Used in Cover:95
GRASP Method!
Number cuts repeat: 0
value: 94.743243
Number Constraints Used in Cover:99
GRASP Method!
Number cuts repeat: 0
value: 94.743243
Number Constraints Used in Cover:102
GRASP Method!
Number cuts repeat: 0
value: 94.743243
Number Constraints Used in Cover:104
GRASP Method!
Number cuts repeat: 0
value: 94.743243
Number Constraints Used in Cover:106
GRASP Method!
Number cuts repeat: 0
value: 94.743243
Number Constraints Used in Cover:108
GRASP Method!
Number cuts repeat: 0
value: 94.743243
Number Constraints Used in Cover:108
GRASP Method!
Number cuts repeat: 0
value: 94.743243
Number Constraints Used in Cover:113
GRASP Method!
Number cuts repeat: 0
value: 94.743243
Number Constraints Used in Cover:115
GRASP Method!
Number cuts repeat: 0
value: 94.743243
Number Constraints Used in Cover:120
GRASP Method!
Number cuts repeat: 0
value: 94.743243
Number Constraints Used in Cover:120
GRASP Method!
Number cuts repeat: 0
value: 94.743243
Number Constraints Used in Cover:125
GRASP Method!
Number cuts repeat: 0
value: 94.743243
Number Constraints Used in Cover:129
GRASP Method!
Number cuts repeat: 0
value: 94.743243
Number Constraints Used in Cover:130
GRASP Method!
Number cuts repeat: 0
value: 94.743243
Number Constraints Used in Cover:132
GRASP Method!
Number cuts repeat: 0
value: 94.743243
Number Constraints Used in Cover:137
GRASP Method!
Number cuts repeat: 0
value: 94.743243
Number Constraints Used in Cover:138
GRASP Method!
Number cuts repeat: 0
value: 94.743243
Number Constraints Used in Cover:141
GRASP Method!
Number cuts repeat: 0
value: 94.743243
Number Constraints Used in Cover:146
GRASP Method!
Number cuts repeat: 0
value: 94.743243
Number Constraints Used in Cover:150
GRASP Method!
Number cuts repeat: 0
value: 94.743243
Number Constraints Used in Cover:160
GRASP Method!
Number cuts repeat: 0
value: 94.743243
Number Constraints Used in Cover:162
GRASP Method!
Number cuts repeat: 0
value: 94.743243
Number Constraints Used in Cover:167
GRASP Method!
Number cuts repeat: 0
value: 94.743243
Number Constraints Used in Cover:173
GRASP Method!
Number cuts repeat: 0
value: 94.743243
Number Constraints Used in Cover:179
GRASP Method!
Number cuts repeat: 0
value: 94.743243
Number Constraints Used in Cover:183
GRASP Method!
Number cuts repeat: 0
value: 94.743243
Number Constraints Used in Cover:187
GRASP Method!
Number cuts repeat: 0
value: 94.743243
Number Constraints Used in Cover:192
GRASP Method!
Number cuts repeat: 0
value: 94.743243
Number Constraints Used in Cover:194
GRASP Method!
Number cuts repeat: 0
value: 94.743243
Number Constraints Used in Cover:198
GRASP Method!
Number cuts repeat: 0
value: 94.743243
Number Constraints Used in Cover:204
GRASP Method!
Number cuts repeat: 0
value: 94.743243
Number Constraints Used in Cover:204
GRASP Method!
Number cuts repeat: 0
value: 94.743243
Number Constraints Used in Cover:212
GRASP Method!
Number cuts repeat: 0
value: 94.743243
Number Constraints Used in Cover:218
GRASP Method!
Number cuts repeat: 0
value: 94.743243
Number Constraints Used in Cover:225
GRASP Method!
Number cuts repeat: 0
value: 94.743243
Number Constraints Used in Cover:232
GRASP Method!
Number cuts repeat: 0
value: 94.743243
Number Constraints Used in Cover:234
GRASP Method!
Number cuts repeat: 0
value: 94.743243
Number Constraints Used in Cover:238
GRASP Method!
Number cuts repeat: 0
value: 94.743243
Number Constraints Used in Cover:245
GRASP Method!
Number cuts repeat: 0
value: 94.743243
Number Constraints Used in Cover:251
GRASP Method!
Number cuts repeat: 0
value: 94.743243
Number Constraints Used in Cover:256
GRASP Method!
Number cuts repeat: 0
value: 94.743243
Number Constraints Used in Cover:260
GRASP Method!
Number cuts repeat: 0
value: 94.743243
Number Constraints Used in Cover:267
GRASP Method!
Number cuts repeat: 0
value: 94.743243
Number Constraints Used in Cover:271
GRASP Method!
Number cuts repeat: 0
value: 94.743243
Number Constraints Used in Cover:276
GRASP Method!
Number cuts repeat: 0
value: 94.743243
Number Constraints Used in Cover:279
GRASP Method!
Number cuts repeat: 0
value: 94.743243
Number Constraints Used in Cover:286
GRASP Method!
Number cuts repeat: 0
value: 94.743243
Number Constraints Used in Cover:293
GRASP Method!
Number cuts repeat: 0
value: 94.743243
Number Constraints Used in Cover:298
GRASP Method!
Number cuts repeat: 0
value: 94.743243
Number Constraints Used in Cover:302
GRASP Method!
Number cuts repeat: 0
value: 94.743243
Number Constraints Used in Cover:310
GRASP Method!
Number cuts repeat: 0
value: 94.743243
Number Constraints Used in Cover:314
GRASP Method!
Number cuts repeat: 0
value: 94.743243
Number Constraints Used in Cover:320
GRASP Method!
Number cuts repeat: 0
value: 94.743243
Number Constraints Used in Cover:324
GRASP Method!
Number cuts repeat: 0
value: 94.743243
Number Constraints Used in Cover:332
GRASP Method!
Number cuts repeat: 0
value: 94.743243
Number Constraints Used in Cover:336
GRASP Method!
Number cuts repeat: 0
value: 94.743243
Number Constraints Used in Cover:346
GRASP Method!
Number cuts repeat: 0
value: 94.743243
Number Constraints Used in Cover:352
GRASP Method!
Number cuts repeat: 0
value: 94.743243
Number Constraints Used in Cover:357
GRASP Method!
Number cuts repeat: 0
value: 94.743243
Number Constraints Used in Cover:361
GRASP Method!
Number cuts repeat: 0
value: 94.743243
Number Constraints Used in Cover:368
GRASP Method!
Number cuts repeat: 0
value: 94.743243
Number Constraints Used in Cover:371
GRASP Method!
Number cuts repeat: 0
value: 94.743243
Number Constraints Used in Cover:379
GRASP Method!
Number cuts repeat: 0
value: 94.743243
Number Constraints Used in Cover:386
GRASP Method!
Number cuts repeat: 0
value: 94.743243
Number Constraints Used in Cover:390
GRASP Method!
Number cuts repeat: 0
value: 94.743243
Number Constraints Used in Cover:392
GRASP Method!
Number cuts repeat: 0
value: 94.743243
Number Constraints Used in Cover:398
GRASP Method!
Number cuts repeat: 0
value: 94.743243
Number Constraints Used in Cover:398
GRASP Method!
Number cuts repeat: 0
value: 94.743243
Number Constraints Used in Cover:400
GRASP Method!
Number cuts repeat: 0
value: 94.743243
Number Constraints Used in Cover:408
GRASP Method!
Number cuts repeat: 0
value: 94.743243
Number Constraints Used in Cover:412
GRASP Method!
Number cuts repeat: 0
value: 94.743243
Number Constraints Used in Cover:417
GRASP Method!
Number cuts repeat: 0
value: 94.743243
Number Constraints Used in Cover:421
GRASP Method!
Number cuts repeat: 0
value: 94.743243
Number Constraints Used in Cover:425
GRASP Method!
Number cuts repeat: 0
value: 94.743243
Number Constraints Used in Cover:427
GRASP Method!
Number cuts repeat: 0
value: 94.743243
Number Constraints Used in Cover:430
GRASP Method!
Number cuts repeat: 0
value: 94.743243
Number Constraints Used in Cover:437
GRASP Method!
Number cuts repeat: 0
value: 94.743243
Number Constraints Used in Cover:438
GRASP Method!
Number cuts repeat: 0
value: 94.743243
Number Constraints Used in Cover:440
GRASP Method!
Number cuts repeat: 0
value: 94.743243
Number Constraints Used in Cover:446
GRASP Method!
Number cuts repeat: 0
value: 94.743243
Number Constraints Used in Cover:448
GRASP Method!
Number cuts repeat: 0
value: 94.743243
Number Constraints Used in Cover:451
GRASP Method!
Number cuts repeat: 0
value: 94.743243
Number Constraints Used in Cover:454
GRASP Method!
Number cuts repeat: 0
value: 94.743243
Number Constraints Used in Cover:457
GRASP Method!
Number cuts repeat: 0
value: 94.743243
Number Constraints Used in Cover:465
GRASP Method!
Number cuts repeat: 0
value: 94.743243
Number Constraints Used in Cover:474
GRASP Method!
Number cuts repeat: 0
value: 94.743243
Number Constraints Used in Cover:475
GRASP Method!
Number cuts repeat: 0
value: 94.743243
Number Constraints Used in Cover:480
GRASP Method!
Number cuts repeat: 0
value: 94.743243
Number Constraints Used in Cover:485
GRASP Method!
Number cuts repeat: 0
value: 94.743243
Number Constraints Used in Cover:492
GRASP Method!
Number cuts repeat: 0
value: 94.743243
Number Constraints Used in Cover:497
GRASP Method!
Number cuts repeat: 0
value: 94.743243
Number Constraints Used in Cover:501
GRASP Method!
Number cuts repeat: 0
value: 94.743243
Number Constraints Used in Cover:511
GRASP Method!
Number cuts repeat: 0
value: 94.743243
Number Constraints Used in Cover:514
GRASP Method!
Number cuts repeat: 0
value: 94.743243
Number Constraints Used in Cover:518
GRASP Method!
Number cuts repeat: 0
value: 94.743243
Number Constraints Used in Cover:524
GRASP Method!
Number cuts repeat: 0
value: 94.743243
Number Constraints Used in Cover:527
GRASP Method!
Number cuts repeat: 0
value: 94.743243
Number Constraints Used in Cover:530
GRASP Method!
Number cuts repeat: 0
value: 94.743243
Number Constraints Used in Cover:533
GRASP Method!
Number cuts repeat: 0
value: 94.743243
Number Constraints Used in Cover:539
GRASP Method!
Number cuts repeat: 0
value: 94.743243
Number Constraints Used in Cover:544
GRASP Method!
Number cuts repeat: 0
value: 94.743243
Number Constraints Used in Cover:548
GRASP Method!
Number cuts repeat: 0
value: 94.743243
Number Constraints Used in Cover:550
GRASP Method!
Number cuts repeat: 0
value: 94.743243
Number Constraints Used in Cover:555
GRASP Method!
Number cuts repeat: 0
value: 94.743243
Number Constraints Used in Cover:562
GRASP Method!
Number cuts repeat: 0
value: 94.743243
Number Constraints Used in Cover:567
GRASP Method!
Number cuts repeat: 0
value: 94.743243
Number Constraints Used in Cover:570
GRASP Method!
Number cuts repeat: 0
value: 94.743243
Number Cuts Final: 568
